{'code': [8, 5, 5, 16, 6, 17, 18, 9, 9, 13, 14, 19, 16, 8, 12, 17, 2, 0, 14, 2, 16, 13, 8, 15, 19, 2
, 12, 2, 15, 9, 4, 10, 6, 10, 1, 10, 4, 14, 8, 7, 8, 13, 11, 13, 13, 19, 17, 3, 18, 12, 4, 19, 13, 9
, 0, 10, 6, 7, 0, 15, 5, 7, 4, 10, 7, 10, 19, 6, 19, 8, 3, 1, 7, 1, 19, 0, 0, 18, 15, 4, 11, 16, 6, 
15, 16, 1, 1, 11, 10, 9, 2, 3, 15, 16, 16, 18, 11, 5, 13, 10, 19, 6, 1, 4, 16, 13, 19, 11, 15, 2, 17
, 2, 1, 8, 6, 11, 3, 5, 1, 19, 0, 0, 17, 11, 5, 16, 17, 2, 14, 9, 14, 4, 7, 17, 9, 16, 8, 8, 3, 14, 
3, 7, 18, 11, 7, 0, 1, 2, 10, 9, 15, 11, 6, 17, 9, 6, 12, 18, 9, 5, 0, 4, 5, 9, 18, 15, 7, 4, 18, 11
, 15, 19, 3, 14, 1, 7, 1, 13, 6, 2, 0, 12, 5, 15, 6, 17, 14, 5, 6, 13, 7, 4, 12, 3, 12, 7, 15, 4, 8,
 3, 0, 15, 18, 17, 17, 4, 12, 16, 12, 1, 18, 14, 5, 12, 4, 6, 15, 18, 16, 14, 0, 3, 18, 9, 8, 12, 10
, 19, 2, 16, 7, 11, 1, 14, 6, 18, 19, 4, 3, 14], 'route': None, 'mac': [[5, 5, 1, 8, 0, 3, 7, 2, 3, 
8, 3, 9], [5, 9, 5, 1, 2, 3, 2, 2, 7, 8, 4, 9, 1], [4, 0, 0, 1, 0, 9, 1, 8, 4, 6, 1], [3, 2, 4, 1, 9
, 5, 0, 9, 1, 7, 3], [5, 9, 6, 5, 2, 6, 12, 1, 9, 8, 9, 0, 3, 2], [8, 0, 2, 8, 6, 0, 5, 1, 1, 2, 4],
 [1, 6, 0, 8, 3, 8, 6, 7, 9, 4, 3, 4, 2, 0], [8, 9, 6, 1, 9, 0, 12, 3, 6, 9, 1, 0, 9], [6, 6, 3, 9, 
9, 3, 3, 9, 0, 5, 1], [9, 4, 1, 8, 2, 0, 7, 2, 1, 2, 3, 7], [2, 9, 3, 9, 4, 0, 1, 1, 7, 9], [5, 4, 9
, 3, 4, 1, 6, 1, 0, 7, 0], [6, 1, 0, 6, 8, 2, 1, 6, 8, 8, 7], [1, 8, 6, 1, 4, 4, 9, 2, 1, 2], [7, 4,
 8, 3, 9, 8, 6, 5, 9, 2, 5, 4], [5, 4, 1, 0, 1, 12, 7, 8, 3, 1, 9, 1, 2, 5], [3, 9, 7, 6, 5, 9, 8, 2
, 5, 0, 2, 1, 8], [3, 0, 7, 5, 1, 4, 9, 5, 0, 1, 4], [1, 1, 7, 6, 6, 4, 2, 8, 5, 0, 6, 2, 6], [2, 8,
 2, 1, 7, 4, 6, 8, 6, 3, 5, 6, 6]], 'wok': None}
